28
4
0 18 9 3 8 1 2 5 11 14 15 24
2 14 15 21 17 23 25 6 10 24 20 7 4 16 1 27
17 23 6 3 27 21 25 18 20 13 24 4 9 15 1 10 0 22 5 11 2 14 12 19 8 7 26 16
24 13 23 15 0 1 12 22 4 2 18 7 21 19 5 17 16 11 14 9 10 26
